c File: instances/28_0.30_1.col
c
c Description: Random graph of size 28 vertices and P(0.3) of edges between any two vertices.
p col 28 378
e 1 2
e 1 4
e 1 7
e 1 12
e 1 16
e 1 17
e 1 21
e 1 24
e 1 26
e 2 4
e 2 5
e 2 7
e 2 9
e 2 12
e 2 13
e 2 16
e 2 21
e 2 22
e 2 24
e 3 6
e 3 8
e 3 11
e 3 15
e 4 8
e 4 20
e 4 26
e 4 27
e 5 10
e 5 18
e 5 24
e 5 25
e 5 28
e 6 8
e 6 9
e 6 10
e 6 11
e 6 12
e 6 17
e 6 25
e 6 26
e 6 27
e 6 28
e 7 9
e 7 13
e 7 14
e 7 15
e 7 17
e 7 22
e 8 9
e 8 20
e 8 24
e 8 28
e 9 10
e 9 11
e 9 15
e 9 16
e 9 17
e 9 19
e 9 23
e 9 24
e 9 25
e 9 26
e 10 11
e 10 14
e 10 15
e 10 16
e 10 18
e 10 19
e 10 21
e 10 24
e 10 25
e 10 27
e 11 12
e 11 19
e 11 20
e 11 22
e 11 24
e 12 15
e 12 22
e 12 23
e 12 27
e 13 15
e 13 18
e 13 22
e 13 24
e 14 16
e 14 18
e 14 20
e 14 22
e 14 26
e 15 16
e 16 17
e 16 23
e 16 26
e 17 18
e 17 20
e 17 25
e 17 28
e 18 19
e 18 20
e 19 20
e 19 23
e 19 24
e 20 24
e 20 25
e 20 27
e 21 23
e 21 27
e 22 23
e 22 25
e 24 26
e 24 27
e 25 26